Route #1: 1 30 31 40 21 54 41 52 1 
Route #2: 1 46 13 55 51 36 15 9 18 61 1 
Route #3: 1 7 17 8 33 29 47 12 22 59 48 24 3 32 1 
Route #4: 1 62 43 34 38 16 28 4 1 
Route #5: 1 1 49 39 23 1 
Route #6: 1 57 20 2 63 42 25 26 1 
Route #7: 1 27 56 11 50 60 1 
Route #8: 1 37 10 35 14 5 45 1 
Route #9: 1 19 6 53 58 44 1 

Cost 1416.98
Time 0.6119


 * Another infos *

 Iterations: 64 Time: 0.6119 sec - 0.0102 min - 0.0002 horas
0.0000 h 0.0102 min
Problem dimension: 64
